(set-option :print-success false)
(set-logic QF_UF)
(declare-sort x131 0)
(declare-sort x43 0)
(declare-fun x26 (x43 x43) x43)
(declare-fun x117 () x43)
(declare-fun x108 (x43 x43) x43)
(declare-fun x56 () x43)
(declare-fun x135 () x43)
(declare-fun x134 () x43)
(declare-fun x154 () x43)
(assert (or (or (or (and (not (= x135 (x26 (x26 x154 x135) x154))) (and (not (= (x26 (x26 x56 x135) x56) x135)) (and (and (not (= x135 (x26 (x26 x134 x135) x134))) (not (= (x26 (x26 x117 x135) x117) x135))) (not (= (x26 (x26 x135 x135) x135) x135))))) (or (and (and (and (not (= (x26 (x26 x135 x117) x135) x117)) (and (not (= x117 (x26 (x26 x134 x117) x134))) (not (= (x26 (x26 x117 x117) x117) x117)))) (not (= x117 (x26 (x26 x56 x117) x56)))) (not (= x117 (x26 (x26 x154 x117) x154)))) (and (and (not (= (x26 (x26 x56 x134) x56) x134)) (and (and (not (= x134 (x26 (x26 x117 x134) x117))) (not (= x134 (x26 (x26 x134 x134) x134)))) (not (= (x26 (x26 x135 x134) x135) x134)))) (not (= (x26 (x26 x154 x134) x154) x134))))) (and (not (= (x26 (x26 x154 x56) x154) x56)) (and (and (and (not (= x56 (x26 (x26 x134 x56) x134))) (not (= x56 (x26 (x26 x117 x56) x117)))) (not (= x56 (x26 (x26 x135 x56) x135)))) (not (= x56 (x26 (x26 x56 x56) x56)))))) (and (and (not (= (x26 (x26 x56 x154) x56) x154)) (and (and (not (= x154 (x26 (x26 x117 x154) x117))) (not (= x154 (x26 (x26 x134 x154) x134)))) (not (= x154 (x26 (x26 x135 x154) x135))))) (not (= x154 (x26 (x26 x154 x154) x154))))))
(assert (let ((x143 (x26 x154 x56)) (x87 (x26 x134 x135)) (x66 (x26 x154 x117)) (x132 (= x135 (x26 x135 x135))) (x55 (x26 x135 x154)) (x83 (= x117 (x26 x117 x117))) (x106 (x26 x56 x154)) (x107 (x26 x117 x135)) (x125 (= x154 (x26 x154 x154))) (x155 (x26 x135 x117)) (x62 (x26 x154 x135)) (x146 (= x56 (x26 x56 x56))) (x112 (x26 x117 x56)) (x137 (x26 x56 x134)) (x2 (x26 x117 x154)) (x98 (= (x26 x134 x134) x134)) (x92 (x26 x135 x134)) (x59 (x26 x134 x117)) (x109 (x26 x154 x134)) (x126 (x26 x135 x56)) (x96 (x26 x56 x117)) (x53 (x26 x134 x56)) (x11 (x26 x134 x154)) (x61 (x26 x117 x134)) (x49 (x26 x56 x135))) (or (or (and x125 x125) (or (or (or (and (= x154 x109) (= x11 x154)) (and (= x2 x154) (= x154 x66))) (and (= x55 x154) (= x62 x154))) (and (= x106 x154) (= x143 x154)))) (or (or (and (= x106 x56) (= x143 x56)) (or (and x146 x146) (or (or (and (= x112 x56) (= x56 x96)) (and (= x53 x56) (= x137 x56))) (and (= x56 x126) (= x56 x49))))) (or (or (or (and (= x66 x117) (= x2 x117)) (or (and (= x96 x117) (= x112 x117)) (or (or (and x83 x83) (and (= x117 x59) (= x117 x61))) (and (= x117 x107) (= x155 x117))))) (or (and (= x11 x134) (= x109 x134)) (or (and (= x134 x53) (= x134 x137)) (or (or (and x98 x98) (and (= x134 x59) (= x61 x134))) (and (= x87 x134) (= x134 x92)))))) (or (and (= x135 x62) (= x55 x135)) (or (and (= x49 x135) (= x135 x126)) (or (and x132 x132) (or (and (= x155 x135) (= x135 x107)) (and (= x135 x87) (= x92 x135)))))))))))
(assert (and (and (and (= x117 (x26 x135 x56)) (= (x26 x134 x134) x135)) (= (x26 x154 x135) x56)) (= (x26 x135 x135) x154)))
(assert (or (and (and (not (= (x26 x56 (x26 x154 x56)) x154)) (and (and (not (= (x26 x117 (x26 x154 x117)) x154)) (not (= (x26 x134 (x26 x154 x134)) x154))) (not (= x154 (x26 x135 (x26 x154 x135)))))) (not (= x154 (x26 x154 (x26 x154 x154))))) (or (and (not (= (x26 x154 (x26 x56 x154)) x56)) (and (not (= x56 (x26 x56 (x26 x56 x56)))) (and (and (not (= (x26 x117 (x26 x56 x117)) x56)) (not (= (x26 x134 (x26 x56 x134)) x56))) (not (= (x26 x135 (x26 x56 x135)) x56))))) (or (and (and (not (= x135 (x26 x56 (x26 x135 x56)))) (and (not (= (x26 x135 (x26 x135 x135)) x135)) (and (not (= x135 (x26 x134 (x26 x135 x134)))) (not (= x135 (x26 x117 (x26 x135 x117))))))) (not (= (x26 x154 (x26 x135 x154)) x135))) (or (and (not (= x134 (x26 x154 (x26 x134 x154)))) (and (and (and (not (= x134 (x26 x134 (x26 x134 x134)))) (not (= x134 (x26 x117 (x26 x134 x117))))) (not (= (x26 x135 (x26 x134 x135)) x134))) (not (= (x26 x56 (x26 x134 x56)) x134)))) (and (and (not (= (x26 x56 (x26 x117 x56)) x117)) (and (and (not (= x117 (x26 x134 (x26 x117 x134)))) (not (= (x26 x117 (x26 x117 x117)) x117))) (not (= (x26 x135 (x26 x117 x135)) x117)))) (not (= (x26 x154 (x26 x117 x154)) x117))))))))
(assert (let ((x146 (x26 x56 x117)) (x106 (x26 x154 x56)) (x137 (x26 x135 x134)) (x61 (x26 x117 x135)) (x49 (x26 x135 x56)) (x143 (x26 x154 x135)) (x83 (x26 x117 x117)) (x107 (x26 x134 x117)) (x112 (x26 x135 x117)) (x132 (x26 x134 x56)) (x96 (x26 x134 x154)) (x125 (x26 x154 x154)) (x2 (x26 x56 x135)) (x87 (x26 x134 x135)) (x98 (x26 x117 x56)) (x11 (x26 x56 x154)) (x62 (x26 x154 x117)) (x53 (x26 x135 x135)) (x92 (x26 x134 x134)) (x155 (x26 x117 x154)) (x59 (x26 x117 x134)) (x66 (x26 x56 x134)) (x55 (x26 x154 x134)) (x109 (x26 x56 x56)) (x126 (x26 x135 x154))) (and (and (or (or (or (= (x26 x2 x2) x135) (or (= (x26 x146 x146) x117) (= x134 (x26 x66 x66)))) (= x56 (x26 x109 x109))) (= x154 (x26 x11 x11))) (and (or (or (or (or (= (x26 x112 x112) x117) (= (x26 x137 x137) x134)) (= x135 (x26 x53 x53))) (= x56 (x26 x49 x49))) (= (x26 x126 x126) x154)) (and (or (or (or (or (= x117 (x26 x107 x107)) (= (x26 x92 x92) x134)) (= x135 (x26 x87 x87))) (= x56 (x26 x132 x132))) (= (x26 x96 x96) x154)) (or (or (= (x26 x98 x98) x56) (or (= (x26 x61 x61) x135) (or (= (x26 x83 x83) x117) (= (x26 x59 x59) x134)))) (= (x26 x155 x155) x154))))) (or (or (or (or (= x117 (x26 x62 x62)) (= (x26 x55 x55) x134)) (= (x26 x143 x143) x135)) (= (x26 x106 x106) x56)) (= (x26 x125 x125) x154)))))
(assert (let ((x83 (x26 x117 x117)) (x61 (x26 x135 x135)) (x98 (x26 x56 x56)) (x155 (x26 x154 x154)) (x59 (x26 x134 x134))) (and (not (= (x26 x155 x155) x154)) (and (not (= x56 (x26 x98 x98))) (and (and (not (= x134 (x26 x59 x59))) (not (= x117 (x26 x83 x83)))) (not (= (x26 x61 x61) x135)))))))
(assert (let ((x50 (x26 x154 x56)) (x158 (x26 x117 x117)) (x74 (x26 x154 x154)) (x15 (x26 x154 x135)) (x33 (x26 x154 x134)) (x114 (x26 x135 x135)) (x115 (x26 x134 x154)) (x71 (x26 x117 x56)) (x152 (x26 x117 x154)) (x65 (x26 x56 x154)) (x20 (x26 x154 x117)) (x64 (x26 x56 x117)) (x39 (x26 x135 x134)) (x76 (x26 x134 x117)) (x35 (x26 x56 x135)) (x153 (x26 x135 x154)) (x44 (x26 x134 x135)) (x138 (x26 x56 x56)) (x159 (x26 x117 x134)) (x139 (x26 x134 x134)) (x7 (x26 x135 x117)) (x149 (x26 x135 x56)) (x16 (x26 x117 x135)) (x6 (x26 x134 x56)) (x99 (x26 x56 x134))) (let ((x144 (= x56 x50)) (x8 (= x135 x152)) (x155 (= x117 x7)) (x67 (= x76 x135)) (x157 (= x159 x154)) (x97 (= x135 x65)) (x87 (= x44 x117)) (x150 (= x154 x76)) (x19 (= x33 x154)) (x11 (= x115 x117)) (x81 (= x134 x158)) (x119 (= x154 x35)) (x143 (= x50 x117)) (x62 (= x117 x15)) (x45 (= x16 x134)) (x123 (= x114 x134)) (x14 (= x74 x154)) (x83 (= x158 x117)) (x132 (= x117 x114)) (x70 (= x154 x50)) (x91 (= x50 x134)) (x112 (= x71 x117)) (x34 (= x6 x135)) (x42 (= x7 x154)) (x88 (= x74 x56)) (x27 (= x153 x135)) (x29 (= x134 x65)) (x73 (= x56 x159)) (x22 (= x134 x64)) (x102 (= x15 x135)) (x94 (= x134 x7)) (x122 (= x33 x135)) (x59 (= x117 x76)) (x28 (= x56 x149)) (x52 (= x154 x149)) (x54 (= x33 x134)) (x148 (= x56 x7)) (x58 (= x15 x154)) (x46 (= x134 x39)) (x126 (= x149 x117)) (x36 (= x6 x154)) (x120 (= x134 x139)) (x146 (= x138 x117)) (x86 (= x134 x44)) (x84 (= x154 x99)) (x147 (= x135 x16)) (x78 (= x154 x138)) (x79 (= x20 x134)) (x80 (= x56 x139)) (x41 (= x56 x15)) (x125 (= x117 x74)) (x24 (= x158 x154)) (x68 (= x152 x154)) (x121 (= x135 x35)) (x72 (= x33 x56)) (x101 (= x35 x134)) (x95 (= x50 x135)) (x13 (= x138 x135)) (x40 (= x154 x44)) (x51 (= x99 x134)) (x55 (= x153 x117)) (x3 (= x39 x56)) (x141 (= x71 x154)) (x23 (= x134 x138)) (x109 (= x33 x117)) (x103 (= x56 x44)) (x116 (= x71 x56)) (x75 (= x39 x135)) (x118 (= x135 x7)) (x145 (= x153 x56)) (x85 (= x149 x135)) (x106 (= x65 x117)) (x4 (= x15 x134)) (x9 (= x16 x56)) (x2 (= x117 x152)) (x128 (= x135 x74)) (x12 (= x56 x99)) (x63 (= x56 x76)) (x111 (= x99 x135)) (x31 (= x56 x6)) (x53 (= x6 x117)) (x49 (= x117 x35)) (x92 (= x39 x117)) (x5 (= x56 x114)) (x104 (= x154 x39)) (x48 (= x6 x134)) (x1 (= x134 x115)) (x21 (= x65 x56)) (x133 (= x134 x159)) (x90 (= x139 x135)) (x37 (= x134 x74)) (x69 (= x71 x135)) (x151 (= x135 x158)) (x93 (= x64 x154)) (x57 (= x152 x56)) (x98 (= x117 x139)) (x10 (= x115 x135)) (x156 (= x20 x154)) (x60 (= x76 x134)) (x77 (= x153 x134)) (x127 (= x64 x56)) (x124 (= x154 x153)) (x18 (= x135 x159)) (x17 (= x65 x154)) (x38 (= x71 x134)) (x113 (= x154 x139)) (x137 (= x117 x99)) (x105 (= x138 x56)) (x130 (= x134 x149)) (x100 (= x56 x115)) (x47 (= x135 x64)) (x110 (= x152 x134)) (x107 (= x117 x16)) (x61 (= x117 x159)) (x129 (= x135 x114)) (x96 (= x117 x64)) (x142 (= x35 x56)) (x25 (= x135 x20)) (x30 (= x154 x115)) (x136 (= x44 x135)) (x66 (= x117 x20)) (x89 (= x16 x154)) (x140 (= x158 x56)) (x32 (= x56 x20)) (x82 (= x114 x154))) (and (or (or (or (or (and x78 (not x78)) (or (and (not x52) x119) (or (and (not x36) x84) (and x93 (not x141))))) (and (not x70) x17)) (or (or (or (and x30 (not x19)) (or (and x36 (not x84)) (or (and (not x104) x40) (or (and (not x113) x113) (and (not x157) x150))))) (or (or (or (and (not x42) x89) (or (and x157 (not x150)) (and x24 (not x24)))) (and x141 (not x93))) (and x68 (not x156)))) (or (and x124 (not x58)) (or (or (and x82 (not x82)) (or (and x104 (not x40)) (and (not x89) x42))) (and (not x119) x52))))) (or (or (and (not x17) x70) (or (and (not x124) x58) (or (and (not x30) x19) (and (not x68) x156)))) (and (not x14) x14))) (and (and (and (or (or (or (and (not x106) x143) (or (and (not x55) x62) (or (and x66 (not x2)) (and (not x11) x109)))) (and x125 (not x125))) (or (or (and x106 (not x143)) (or (or (and (not x126) x49) (or (and x96 (not x112)) (and (not x53) x137))) (and x146 (not x146)))) (or (or (or (or (and x53 (not x137)) (or (or (and x98 (not x98)) (and (not x61) x59)) (and (not x92) x87))) (and (not x109) x11)) (or (or (or (and x107 (not x155)) (or (and (not x83) x83) (and (not x59) x61))) (and (not x96) x112)) (and (not x66) x2))) (or (or (and (not x49) x126) (or (or (and (not x87) x92) (and x155 (not x107))) (and x132 (not x132)))) (and x55 (not x62)))))) (or (or (or (or (or (or (and x22 (not x38)) (and (not x48) x51)) (and x101 (not x130))) (and x23 (not x23))) (and (not x91) x29)) (or (or (or (and x110 (not x79)) (or (and (not x22) x38) (or (or (and x133 (not x60)) (and x81 (not x81))) (and (not x94) x45)))) (or (or (or (or (and x120 (not x120)) (and (not x133) x60)) (and (not x46) x86)) (and (not x51) x48)) (and (not x54) x1))) (or (or (and x130 (not x101)) (or (and (not x123) x123) (or (and x46 (not x86)) (and x94 (not x45))))) (and x77 (not x4))))) (or (and x37 (not x37)) (or (or (and (not x77) x4) (or (and x79 (not x110)) (and (not x1) x54))) (and x91 (not x29)))))) (or (or (or (or (or (or (or (and (not x136) x75) (and (not x147) x118)) (and x129 (not x129))) (and x85 (not x121))) (and (not x102) x27)) (or (or (and x10 (not x122)) (or (and x34 (not x111)) (or (or (and x67 (not x18)) (and (not x90) x90)) (and x136 (not x75))))) (or (or (and (not x47) x69) (or (or (and (not x67) x18) (and (not x151) x151)) (and x147 (not x118)))) (and (not x25) x8)))) (or (or (and x13 (not x13)) (or (and x121 (not x85)) (or (and (not x69) x47) (and x111 (not x34))))) (and (not x95) x97))) (or (and (not x128) x128) (or (and (not x97) x95) (or (and x102 (not x27)) (or (and x25 (not x8)) (and (not x10) x122))))))) (or (or (and (not x88) x88) (or (and (not x21) x144) (or (and x41 (not x145)) (or (and (not x100) x72) (and (not x57) x32))))) (or (or (or (or (or (and (not x31) x12) (and (not x116) x127)) (and x142 (not x28))) (and (not x105) x105)) (and (not x144) x21)) (or (or (or (and (not x32) x57) (or (and (not x127) x116) (or (and x9 (not x148)) (or (and x73 (not x63)) (and (not x140) x140))))) (or (and (not x72) x100) (or (or (and (not x3) x103) (or (and x80 (not x80)) (and (not x73) x63))) (and x31 (not x12))))) (or (and x145 (not x41)) (or (and (not x142) x28) (or (or (and x3 (not x103)) (and x148 (not x9))) (and x5 (not x5)))))))))))))
(assert (or (or (and (not (= (x26 x154 x56) x154)) (and (and (not (= (x26 x135 x56) x135)) (and (not (= (x26 x117 x56) x117)) (not (= (x26 x134 x56) x134)))) (not (= (x26 x56 x56) x56)))) (or (or (and (and (not (= (x26 x56 x134) x56)) (and (not (= x135 (x26 x135 x134))) (and (not (= x134 (x26 x134 x134))) (not (= (x26 x117 x134) x117))))) (not (= x154 (x26 x154 x134)))) (and (not (= (x26 x154 x117) x154)) (and (not (= x56 (x26 x56 x117))) (and (not (= (x26 x135 x117) x135)) (and (not (= x134 (x26 x134 x117))) (not (= (x26 x117 x117) x117))))))) (and (and (and (not (= x135 (x26 x135 x135))) (and (not (= x117 (x26 x117 x135))) (not (= x134 (x26 x134 x135))))) (not (= (x26 x56 x135) x56))) (not (= (x26 x154 x135) x154))))) (and (and (not (= (x26 x56 x154) x56)) (and (and (not (= (x26 x134 x154) x134)) (not (= x117 (x26 x117 x154)))) (not (= x135 (x26 x135 x154))))) (not (= (x26 x154 x154) x154)))))
(assert (not (and (and (= x134 (x26 x154 x56)) (and (and (and (= (x26 x154 x117) x135) (and (= x154 (x26 x56 x154)) (and (= (x26 x56 x56) x135) (and (= (x26 x56 x135) x134) (and (and (and (= (x26 x135 x154) x135) (and (and (and (and (and (= (x26 x134 x154) x134) (and (= (x26 x134 x56) x56) (and (and (and (= x154 (x26 x134 x117)) (and (and (= x154 (x26 x117 x56)) (and (= x135 (x26 x117 x135)) (and (= x117 (x26 x117 x134)) (= x134 (x26 x117 x117))))) (= x56 (x26 x117 x154)))) (= (x26 x134 x134) x135)) (= x117 (x26 x134 x135))))) (= (x26 x135 x117) x56)) (= (x26 x135 x134) x134)) (= x154 (x26 x135 x135))) (= (x26 x135 x56) x117))) (= (x26 x56 x117) x117)) (= (x26 x56 x134) x56)))))) (= (x26 x154 x134) x154)) (= (x26 x154 x135) x56))) (= x117 (x26 x154 x154)))))
(assert (let ((x83 (x26 x117 x117)) (x49 (x26 x56 x135)) (x132 (x26 x135 x135)) (x125 (x26 x154 x154)) (x137 (x26 x56 x134)) (x53 (x26 x134 x56)) (x98 (x26 x134 x134)) (x59 (x26 x134 x117)) (x126 (x26 x135 x56)) (x155 (x26 x135 x117)) (x146 (x26 x56 x56)) (x2 (x26 x117 x154)) (x92 (x26 x135 x134)) (x106 (x26 x56 x154)) (x96 (x26 x56 x117)) (x109 (x26 x154 x134)) (x143 (x26 x154 x56)) (x112 (x26 x117 x56)) (x61 (x26 x117 x134)) (x87 (x26 x134 x135)) (x11 (x26 x134 x154)) (x66 (x26 x154 x117)) (x55 (x26 x135 x154)) (x62 (x26 x154 x135)) (x107 (x26 x117 x135))) (and (and (and (or (or (or (not (= x132 x132)) (or (not (= x107 x155)) (not (= x92 x87)))) (not (= x126 x49))) (not (= x62 x55))) (and (or (not (= x66 x2)) (or (not (= x112 x96)) (or (or (not (= x83 x83)) (not (= x59 x61))) (not (= x107 x155))))) (or (or (not (= x53 x137)) (or (or (not (= x98 x98)) (not (= x59 x61))) (not (= x87 x92)))) (not (= x109 x11))))) (or (or (or (or (not (= x112 x96)) (not (= x137 x53))) (not (= x49 x126))) (not (= x146 x146))) (not (= x143 x106)))) (or (not (= x125 x125)) (or (or (not (= x62 x55)) (or (not (= x11 x109)) (not (= x66 x2)))) (not (= x143 x106)))))))
(assert (let ((x20 (x26 x154 x117)) (x76 (x26 x134 x117)) (x15 (x26 x154 x135)) (x153 (x26 x135 x154)) (x114 (x26 x135 x135)) (x71 (x26 x117 x56)) (x39 (x26 x135 x134)) (x158 (x26 x117 x117)) (x16 (x26 x117 x135)) (x6 (x26 x134 x56)) (x138 (x26 x56 x56)) (x115 (x26 x134 x154)) (x7 (x26 x135 x117)) (x44 (x26 x134 x135)) (x152 (x26 x117 x154)) (x159 (x26 x117 x134)) (x64 (x26 x56 x117)) (x50 (x26 x154 x56)) (x149 (x26 x135 x56)) (x99 (x26 x56 x134)) (x139 (x26 x134 x134)) (x33 (x26 x154 x134)) (x65 (x26 x56 x154)) (x35 (x26 x56 x135)) (x74 (x26 x154 x154))) (let ((x90 (= x139 x135)) (x24 (= x158 x154)) (x109 (= x33 x117)) (x75 (= x135 x39)) (x119 (= x35 x154)) (x84 (= x99 x154)) (x157 (= x159 x154)) (x156 (= x154 x20)) (x8 (= x135 x152)) (x147 (= x16 x135)) (x18 (= x159 x135)) (x37 (= x134 x74)) (x123 (= x114 x134)) (x120 (= x139 x134)) (x13 (= x138 x135)) (x5 (= x56 x114)) (x92 (= x39 x117)) (x40 (= x44 x154)) (x127 (= x64 x56)) (x89 (= x154 x16)) (x30 (= x115 x154)) (x51 (= x134 x99)) (x145 (= x56 x153)) (x111 (= x99 x135)) (x14 (= x154 x74)) (x28 (= x56 x149)) (x78 (= x138 x154)) (x132 (= x117 x114)) (x122 (= x33 x135)) (x19 (= x33 x154)) (x144 (= x50 x56)) (x25 (= x135 x20)) (x96 (= x64 x117)) (x67 (= x76 x135)) (x79 (= x134 x20)) (x130 (= x149 x134)) (x100 (= x56 x115)) (x143 (= x50 x117)) (x32 (= x56 x20)) (x102 (= x15 x135)) (x150 (= x154 x76)) (x82 (= x154 x114)) (x121 (= x135 x35)) (x128 (= x135 x74)) (x93 (= x64 x154)) (x59 (= x76 x117)) (x38 (= x134 x71)) (x17 (= x65 x154)) (x68 (= x152 x154)) (x48 (= x6 x134)) (x129 (= x135 x114)) (x136 (= x44 x135)) (x94 (= x134 x7)) (x116 (= x71 x56)) (x77 (= x134 x153)) (x2 (= x152 x117)) (x101 (= x134 x35)) (x97 (= x135 x65)) (x9 (= x56 x16)) (x151 (= x135 x158)) (x10 (= x135 x115)) (x46 (= x134 x39)) (x31 (= x6 x56)) (x155 (= x117 x7)) (x107 (= x117 x16)) (x137 (= x99 x117)) (x103 (= x56 x44)) (x70 (= x50 x154)) (x66 (= x117 x20)) (x105 (= x56 x138)) (x29 (= x65 x134)) (x58 (= x154 x15)) (x141 (= x71 x154)) (x53 (= x6 x117)) (x110 (= x134 x152)) (x34 (= x6 x135)) (x45 (= x16 x134)) (x41 (= x56 x15)) (x85 (= x149 x135)) (x4 (= x15 x134)) (x61 (= x159 x117)) (x86 (= x44 x134)) (x55 (= x117 x153)) (x11 (= x115 x117)) (x1 (= x134 x115)) (x98 (= x139 x117)) (x27 (= x153 x135)) (x125 (= x117 x74)) (x83 (= x158 x117)) (x42 (= x7 x154)) (x73 (= x56 x159)) (x80 (= x139 x56)) (x57 (= x56 x152)) (x21 (= x65 x56)) (x63 (= x56 x76)) (x87 (= x117 x44)) (x60 (= x134 x76)) (x91 (= x50 x134)) (x36 (= x154 x6)) (x118 (= x7 x135)) (x81 (= x158 x134)) (x113 (= x154 x139)) (x106 (= x117 x65)) (x124 (= x154 x153)) (x126 (= x117 x149)) (x23 (= x138 x134)) (x62 (= x117 x15)) (x142 (= x56 x35)) (x133 (= x134 x159)) (x47 (= x64 x135)) (x52 (= x154 x149)) (x88 (= x56 x74)) (x140 (= x158 x56)) (x3 (= x56 x39)) (x104 (= x39 x154)) (x112 (= x71 x117)) (x146 (= x117 x138)) (x69 (= x135 x71)) (x49 (= x35 x117)) (x54 (= x134 x33)) (x148 (= x7 x56)) (x22 (= x134 x64)) (x95 (= x135 x50)) (x12 (= x99 x56)) (x72 (= x33 x56))) (and (and (or (or (and x88 x88) (or (or (or (and x72 x100) (and x32 x57)) (and x41 x145)) (and x144 x21))) (or (or (or (or (or (or (and x103 x3) (or (and x73 x63) (and x80 x80))) (and x12 x31)) (and x100 x72)) (or (or (or (or (and x140 x140) (and x63 x73)) (and x9 x148)) (and x127 x116)) (and x32 x57))) (or (or (or (and x5 x5) (or (and x9 x148) (and x103 x3))) (and x28 x142)) (and x41 x145))) (or (and x144 x21) (or (and x105 x105) (or (or (and x31 x12) (and x127 x116)) (and x142 x28)))))) (and (and (or (or (or (or (or (or (and x22 x38) (and x51 x48)) (and x101 x130)) (and x23 x23)) (and x91 x29)) (or (or (or (or (or (and x86 x46) (or (and x120 x120) (and x133 x60))) (and x51 x48)) (and x1 x54)) (or (or (or (or (and x60 x133) (and x81 x81)) (and x94 x45)) (and x38 x22)) (and x79 x110))) (or (or (and x101 x130) (or (or (and x94 x45) (and x86 x46)) (and x123 x123))) (and x77 x4)))) (or (and x37 x37) (or (and x91 x29) (or (or (and x54 x1) (and x79 x110)) (and x77 x4))))) (or (or (and x125 x125) (or (and x143 x106) (or (or (and x2 x66) (and x11 x109)) (and x55 x62)))) (or (or (and x143 x106) (or (and x146 x146) (or (and x49 x126) (or (and x137 x53) (and x112 x96))))) (or (or (or (and x2 x66) (or (or (and x107 x155) (or (and x59 x61) (and x83 x83))) (and x96 x112))) (or (and x11 x109) (or (and x53 x137) (or (or (and x59 x61) (and x98 x98)) (and x92 x87))))) (or (or (or (and x132 x132) (or (and x107 x155) (and x92 x87))) (and x126 x49)) (and x55 x62)))))) (or (or (or (and x95 x97) (or (and x13 x13) (or (or (and x111 x34) (and x69 x47)) (and x121 x85)))) (or (or (or (or (or (or (and x18 x67) (and x151 x151)) (and x147 x118)) (and x69 x47)) (and x25 x8)) (or (and x10 x122) (or (and x34 x111) (or (and x136 x75) (or (and x90 x90) (and x18 x67)))))) (or (and x27 x102) (or (or (or (and x136 x75) (and x118 x147)) (and x129 x129)) (and x85 x121))))) (or (and x128 x128) (or (or (or (and x8 x25) (and x122 x10)) (and x27 x102)) (and x95 x97)))))) (or (or (or (or (or (or (or (or (and x150 x157) (and x113 x113)) (and x104 x40)) (and x36 x84)) (and x19 x30)) (or (and x68 x156) (or (and x93 x141) (or (or (and x150 x157) (and x24 x24)) (and x89 x42))))) (or (and x58 x124) (or (and x52 x119) (or (or (and x89 x42) (and x104 x40)) (and x82 x82))))) (or (or (or (and x52 x119) (or (and x141 x93) (and x84 x36))) (and x78 x78)) (and x70 x17))) (or (and x14 x14) (or (and x70 x17) (or (or (and x156 x68) (and x30 x19)) (and x124 x58)))))))))
(assert (or (or (or (or (and (not (= x154 (x26 x117 (x26 x117 x154)))) (and (and (and (not (= (x26 x117 (x26 x117 x117)) x117)) (not (= x134 (x26 x117 (x26 x117 x134))))) (not (= x135 (x26 x117 (x26 x117 x135))))) (not (= x56 (x26 x117 (x26 x117 x56)))))) (and (and (and (and (not (= (x26 x134 (x26 x134 x134)) x134)) (not (= (x26 x134 (x26 x134 x117)) x117))) (not (= (x26 x134 (x26 x134 x135)) x135))) (not (= (x26 x134 (x26 x134 x56)) x56))) (not (= x154 (x26 x134 (x26 x134 x154)))))) (and (and (not (= x56 (x26 x135 (x26 x135 x56)))) (and (not (= x135 (x26 x135 (x26 x135 x135)))) (and (not (= x117 (x26 x135 (x26 x135 x117)))) (not (= x134 (x26 x135 (x26 x135 x134))))))) (not (= x154 (x26 x135 (x26 x135 x154)))))) (and (and (not (= (x26 x56 (x26 x56 x56)) x56)) (and (not (= x135 (x26 x56 (x26 x56 x135)))) (and (not (= x117 (x26 x56 (x26 x56 x117)))) (not (= (x26 x56 (x26 x56 x134)) x134))))) (not (= (x26 x56 (x26 x56 x154)) x154)))) (and (not (= x154 (x26 x154 (x26 x154 x154)))) (and (and (and (not (= (x26 x154 (x26 x154 x134)) x134)) (not (= x117 (x26 x154 (x26 x154 x117))))) (not (= (x26 x154 (x26 x154 x135)) x135))) (not (= (x26 x154 (x26 x154 x56)) x56))))))
(assert (not (and (= (x26 x154 x154) x117) (and (= (x26 x154 x56) x135) (and (= x56 (x26 x154 x135)) (and (= (x26 x154 x134) x134) (and (= x154 (x26 x154 x117)) (and (and (= (x26 x56 x56) x134) (and (= (x26 x56 x135) x135) (and (and (= x56 (x26 x56 x117)) (and (= (x26 x135 x154) x134) (and (and (and (and (and (= x56 (x26 x134 x154)) (and (and (= x134 (x26 x134 x135)) (and (= x135 (x26 x134 x134)) (and (and (= x135 (x26 x117 x154)) (and (= x56 (x26 x117 x56)) (and (and (= x154 (x26 x117 x134)) (= x134 (x26 x117 x117))) (= (x26 x117 x135) x117)))) (= (x26 x134 x117) x117)))) (= (x26 x134 x56) x154))) (= (x26 x135 x117) x135)) (= (x26 x135 x134) x56)) (= (x26 x135 x135) x154)) (= x117 (x26 x135 x56))))) (= x117 (x26 x56 x134))))) (= (x26 x56 x154) x154)))))))))
(assert (let ((x109 (x26 x56 x56)) (x132 (x26 x56 x134)) (x96 (x26 x154 x134)) (x125 (x26 x154 x154)) (x98 (x26 x56 x117)) (x59 (x26 x134 x117)) (x146 (x26 x117 x56)) (x143 (x26 x135 x154)) (x62 (x26 x117 x154)) (x126 (x26 x154 x135)) (x92 (x26 x134 x134)) (x11 (x26 x154 x56)) (x2 (x26 x135 x56)) (x107 (x26 x117 x134)) (x53 (x26 x135 x135)) (x83 (x26 x117 x117)) (x155 (x26 x154 x117)) (x112 (x26 x117 x135)) (x49 (x26 x56 x135)) (x55 (x26 x134 x154)) (x137 (x26 x134 x135)) (x106 (x26 x56 x154)) (x87 (x26 x135 x134)) (x61 (x26 x135 x117)) (x66 (x26 x134 x56))) (and (and (and (and (and (and (and (and (not (= x87 x143)) (and (not (= x2 x87)) (and (and (and (not (= x61 x2)) (and (not (= x61 x87)) (not (= x53 x61)))) (not (= x143 x61))) (not (= x53 x87))))) (not (= x2 x53))) (not (= x53 x143))) (not (= x2 x143))) (and (and (not (= x66 x55)) (and (and (not (= x137 x66)) (and (and (and (and (not (= x59 x55)) (and (and (not (= x59 x92)) (not (= x137 x59))) (not (= x59 x66)))) (not (= x92 x137))) (not (= x92 x66))) (not (= x55 x92)))) (not (= x137 x55)))) (and (and (and (and (not (= x107 x62)) (and (and (not (= x107 x112)) (and (not (= x83 x62)) (and (not (= x83 x146)) (and (not (= x83 x112)) (not (= x107 x83)))))) (not (= x107 x146)))) (not (= x146 x112))) (not (= x112 x62))) (not (= x146 x62))))) (and (not (= x109 x106)) (and (not (= x106 x49)) (and (not (= x109 x49)) (and (and (not (= x132 x109)) (and (and (and (not (= x109 x98)) (and (not (= x49 x98)) (not (= x98 x132)))) (not (= x106 x98))) (not (= x132 x49)))) (not (= x132 x106))))))) (and (and (and (not (= x11 x126)) (and (and (and (not (= x96 x126)) (and (not (= x125 x155)) (and (and (not (= x96 x155)) (not (= x155 x126))) (not (= x11 x155))))) (not (= x11 x96))) (not (= x96 x125)))) (not (= x126 x125))) (not (= x11 x125)))) (and (and (not (= x125 x106)) (and (and (not (= x106 x143)) (and (and (and (not (= x55 x143)) (and (and (not (= x106 x62)) (and (not (= x143 x62)) (not (= x62 x55)))) (not (= x125 x62)))) (not (= x106 x55))) (not (= x55 x125)))) (not (= x143 x125)))) (and (and (and (and (not (= x155 x98)) (and (not (= x61 x155)) (and (not (= x98 x61)) (and (not (= x59 x155)) (and (and (and (not (= x155 x83)) (and (and (not (= x83 x59)) (not (= x83 x61))) (not (= x98 x83)))) (not (= x59 x61))) (not (= x59 x98))))))) (and (not (= x132 x96)) (and (and (not (= x87 x132)) (and (and (not (= x92 x132)) (and (and (and (not (= x132 x107)) (and (not (= x92 x107)) (not (= x107 x87)))) (not (= x96 x107))) (not (= x87 x92)))) (not (= x92 x96)))) (not (= x87 x96))))) (and (and (and (not (= x53 x49)) (and (and (not (= x49 x137)) (and (not (= x53 x137)) (and (and (and (not (= x137 x112)) (not (= x112 x53))) (not (= x112 x49))) (not (= x126 x112))))) (not (= x126 x137)))) (not (= x126 x53))) (not (= x49 x126)))) (and (not (= x11 x109)) (and (not (= x11 x2)) (and (not (= x2 x109)) (and (not (= x66 x11)) (and (and (and (not (= x11 x146)) (and (not (= x146 x109)) (and (not (= x2 x146)) (not (= x66 x146))))) (not (= x66 x2))) (not (= x66 x109))))))))))))
(assert (and (not (= (x26 x154 x154) x154)) (and (and (not (= (x26 x135 x135) x135)) (and (not (= (x26 x134 x134) x134)) (not (= x117 (x26 x117 x117))))) (not (= x56 (x26 x56 x56))))))
(assert (let ((x98 (x26 x56 x56)) (x155 (x26 x154 x154)) (x61 (x26 x135 x135)) (x59 (x26 x134 x134)) (x83 (x26 x117 x117))) (or (and (not (= x154 x155)) (and (not (= x98 x154)) (and (and (not (= x83 x154)) (not (= x154 x59))) (not (= x154 x61))))) (or (or (and (not (= x135 x155)) (and (and (and (not (= x135 x83)) (not (= x59 x135))) (not (= x135 x61))) (not (= x135 x98)))) (or (and (not (= x155 x134)) (and (and (not (= x61 x134)) (and (not (= x59 x134)) (not (= x134 x83)))) (not (= x98 x134)))) (and (and (and (not (= x117 x61)) (and (not (= x117 x83)) (not (= x59 x117)))) (not (= x98 x117))) (not (= x117 x155))))) (and (not (= x56 x155)) (and (not (= x98 x56)) (and (not (= x56 x61)) (and (not (= x83 x56)) (not (= x56 x59))))))))))
(assert (or (and (not (= (x26 (x26 x154 x154) x154) x154)) (and (not (= x56 (x26 (x26 x56 x154) x154))) (and (and (not (= x134 (x26 (x26 x134 x154) x154))) (not (= x117 (x26 (x26 x117 x154) x154)))) (not (= (x26 (x26 x135 x154) x154) x135))))) (or (or (or (and (and (and (and (not (= (x26 (x26 x117 x134) x134) x117)) (not (= (x26 (x26 x134 x134) x134) x134))) (not (= (x26 (x26 x135 x134) x134) x135))) (not (= (x26 (x26 x56 x134) x134) x56))) (not (= x154 (x26 (x26 x154 x134) x134)))) (and (and (not (= x56 (x26 (x26 x56 x117) x117))) (and (not (= x135 (x26 (x26 x135 x117) x117))) (and (not (= (x26 (x26 x134 x117) x117) x134)) (not (= (x26 (x26 x117 x117) x117) x117))))) (not (= x154 (x26 (x26 x154 x117) x117))))) (and (not (= (x26 (x26 x154 x135) x135) x154)) (and (not (= (x26 (x26 x56 x135) x135) x56)) (and (and (not (= x117 (x26 (x26 x117 x135) x135))) (not (= (x26 (x26 x134 x135) x135) x134))) (not (= x135 (x26 (x26 x135 x135) x135))))))) (and (and (and (not (= (x26 (x26 x135 x56) x56) x135)) (and (not (= x117 (x26 (x26 x117 x56) x56))) (not (= (x26 (x26 x134 x56) x56) x134)))) (not (= (x26 (x26 x56 x56) x56) x56))) (not (= x154 (x26 (x26 x154 x56) x56)))))))
(assert (and (and (and (not (= x56 x135)) (and (not (= x134 x154)) (and (not (= x56 x134)) (and (not (= x135 x134)) (and (not (= x117 x154)) (and (and (not (= x135 x117)) (not (= x117 x134))) (not (= x117 x56)))))))) (not (= x154 x135))) (not (= x154 x56))))
(assert (let ((x137 (x26 x135 x134)) (x2 (x26 x56 x135)) (x87 (x26 x134 x135)) (x66 (x26 x56 x134)) (x11 (x26 x56 x154)) (x155 (x26 x117 x154)) (x96 (x26 x134 x154)) (x53 (x26 x135 x135)) (x62 (x26 x154 x117)) (x112 (x26 x135 x117)) (x98 (x26 x117 x56)) (x49 (x26 x135 x56)) (x109 (x26 x56 x56)) (x55 (x26 x154 x134)) (x146 (x26 x56 x117)) (x106 (x26 x154 x56)) (x126 (x26 x135 x154)) (x83 (x26 x117 x117)) (x107 (x26 x134 x117)) (x132 (x26 x134 x56)) (x143 (x26 x154 x135)) (x61 (x26 x117 x135)) (x92 (x26 x134 x134)) (x59 (x26 x117 x134)) (x125 (x26 x154 x154))) (and (and (and (and (and (and (and (and (or (or (or (= x83 x135) (or (= x83 x134) (= x83 x117))) (= x56 x83)) (= x83 x154)) (or (= x59 x154) (or (= x56 x59) (or (= x59 x135) (or (= x59 x117) (= x134 x59)))))) (or (or (or (= x61 x135) (or (= x61 x134) (= x117 x61))) (= x56 x61)) (= x154 x61))) (or (or (or (= x135 x98) (or (= x98 x117) (= x98 x134))) (= x98 x56)) (= x98 x154))) (or (= x155 x154) (or (or (= x135 x155) (or (= x134 x155) (= x117 x155))) (= x155 x56)))) (and (or (= x96 x154) (or (= x56 x96) (or (or (= x96 x134) (= x96 x117)) (= x135 x96)))) (and (and (or (or (= x56 x87) (or (= x135 x87) (or (= x87 x134) (= x117 x87)))) (= x154 x87)) (and (or (= x154 x92) (or (= x56 x92) (or (= x135 x92) (or (= x92 x117) (= x92 x134))))) (or (= x107 x154) (or (= x107 x56) (or (= x107 x135) (or (= x107 x117) (= x134 x107))))))) (or (or (= x56 x132) (or (= x135 x132) (or (= x134 x132) (= x117 x132)))) (= x132 x154))))) (and (or (or (or (= x135 x126) (or (= x117 x126) (= x126 x134))) (= x126 x56)) (= x154 x126)) (and (or (= x49 x154) (or (= x56 x49) (or (= x49 x135) (or (= x134 x49) (= x117 x49))))) (and (or (or (= x56 x53) (or (or (= x53 x134) (= x117 x53)) (= x53 x135))) (= x53 x154)) (and (or (or (or (or (= x137 x134) (= x137 x117)) (= x135 x137)) (= x137 x56)) (= x154 x137)) (or (= x154 x112) (or (or (= x112 x135) (or (= x134 x112) (= x112 x117))) (= x56 x112)))))))) (and (and (and (and (or (or (= x56 x66) (or (= x135 x66) (or (= x66 x117) (= x134 x66)))) (= x66 x154)) (or (or (= x56 x146) (or (= x146 x135) (or (= x146 x117) (= x146 x134)))) (= x154 x146))) (or (= x2 x154) (or (= x2 x56) (or (or (= x2 x134) (= x117 x2)) (= x135 x2))))) (or (= x109 x154) (or (or (or (= x109 x134) (= x109 x117)) (= x135 x109)) (= x109 x56)))) (or (= x11 x154) (or (or (= x135 x11) (or (= x11 x117) (= x134 x11))) (= x56 x11))))) (and (and (and (or (or (or (= x135 x143) (or (= x134 x143) (= x117 x143))) (= x56 x143)) (= x154 x143)) (and (or (or (= x56 x62) (or (= x62 x135) (or (= x62 x117) (= x62 x134)))) (= x154 x62)) (or (or (= x56 x55) (or (or (= x55 x117) (= x134 x55)) (= x135 x55))) (= x154 x55)))) (or (= x106 x154) (or (= x56 x106) (or (= x106 x135) (or (= x134 x106) (= x117 x106)))))) (or (= x125 x154) (or (or (or (= x134 x125) (= x125 x117)) (= x125 x135)) (= x56 x125)))))))
(assert (let ((x55 (x26 x134 x154)) (x81 (x26 x154 x134)) (x136 (x26 x154 x56)) (x57 (x26 x154 x154)) (x155 (x26 x117 x56)) (x107 (x26 x117 x154)) (x115 (x26 x135 x135)) (x132 (x26 x135 x117)) (x61 (x26 x117 x134)) (x11 (x26 x134 x135)) (x59 (x26 x117 x117)) (x62 (x26 x134 x56)) (x98 (x26 x117 x135)) (x96 (x26 x56 x117)) (x67 (x26 x56 x56)) (x18 (x26 x56 x154)) (x114 (x26 x56 x135)) (x123 (x26 x154 x135)) (x94 (x26 x135 x154)) (x87 (x26 x134 x117)) (x112 (x26 x154 x117)) (x158 (x26 x56 x134)) (x109 (x26 x134 x134)) (x33 (x26 x135 x56)) (x125 (x26 x135 x134))) (let ((x64 (= x56 x109)) (x73 (= x154 x33)) (x130 (= x56 x115)) (x20 (= x154 x61)) (x146 (= x61 x117)) (x156 (= x112 x154)) (x113 (= x55 x135)) (x44 (= x117 x11)) (x149 (= x132 x135)) (x54 (= x158 x117)) (x36 (= x55 x56)) (x144 (= x134 x57)) (x12 (= x117 x18)) (x42 (= x94 x135)) (x74 (= x96 x134)) (x101 (= x56 x11)) (x102 (= x56 x33)) (x93 (= x56 x123)) (x80 (= x154 x67)) (x89 (= x135 x18)) (x75 (= x134 x67)) (x86 (= x134 x115)) (x63 (= x154 x62)) (x119 (= x56 x94)) (x46 (= x11 x134)) (x147 (= x33 x134)) (x32 (= x134 x136)) (x100 (= x134 x55)) (x34 (= x62 x135)) (x106 (= x109 x134)) (x4 (= x155 x117)) (x116 (= x94 x117)) (x16 (= x135 x109)) (x10 (= x62 x56)) (x25 (= x158 x56)) (x84 (= x107 x56)) (x23 (= x125 x154)) (x1 (= x117 x114)) (x120 (= x98 x117)) (x105 (= x134 x123)) (x91 (= x33 x117)) (x145 (= x18 x134)) (x83 (= x117 x59)) (x28 (= x81 x134)) (x17 (= x18 x154)) (x72 (= x107 x134)) (x31 (= x117 x57)) (x133 (= x117 x132)) (x51 (= x56 x125)) (x68 (= x81 x154)) (x50 (= x11 x154)) (x41 (= x134 x94)) (x153 (= x135 x98)) (x79 (= x115 x154)) (x69 (= x135 x114)) (x85 (= x67 x135)) (x27 (= x56 x67)) (x126 (= x87 x117)) (x122 (= x56 x155)) (x121 (= x33 x135)) (x66 (= x109 x117)) (x3 (= x123 x117)) (x15 (= x11 x135)) (x142 (= x112 x134)) (x139 (= x125 x117)) (x76 (= x61 x135)) (x29 (= x117 x67)) (x47 (= x158 x135)) (x137 (= x59 x135)) (x124 (= x55 x154)) (x65 (= x98 x154)) (x78 (= x56 x57)) (x53 (= x56 x59)) (x111 (= x155 x135)) (x148 (= x117 x112)) (x13 (= x96 x56)) (x88 (= x135 x81)) (x103 (= x136 x117)) (x143 (= x134 x61)) (x77 (= x117 x62)) (x37 (= x158 x134)) (x8 (= x56 x114)) (x159 (= x135 x87)) (x129 (= x135 x96)) (x82 (= x81 x56)) (x128 (= x114 x154)) (x49 (= x154 x59)) (x9 (= x117 x81)) (x95 (= x154 x96)) (x150 (= x136 x135)) (x70 (= x154 x94)) (x40 (= x56 x112)) (x99 (= x134 x125)) (x157 (= x135 x107)) (x6 (= x132 x134)) (x39 (= x115 x117)) (x58 (= x107 x154)) (x45 (= x98 x134)) (x38 (= x132 x56)) (x92 (= x134 x59)) (x127 (= x55 x117)) (x48 (= x98 x56)) (x152 (= x154 x87)) (x5 (= x117 x107)) (x22 (= x115 x135)) (x97 (= x154 x158)) (x151 (= x134 x114)) (x90 (= x155 x134)) (x141 (= x136 x56)) (x14 (= x154 x57)) (x30 (= x154 x136)) (x104 (= x57 x135)) (x7 (= x56 x87)) (x21 (= x135 x112)) (x24 (= x135 x123)) (x52 (= x56 x18)) (x2 (= x134 x87)) (x35 (= x125 x135)) (x60 (= x109 x154)) (x19 (= x154 x123)) (x138 (= x132 x154)) (x110 (= x117 x96)) (x140 (= x155 x154)) (x118 (= x62 x134)) (x71 (= x61 x56))) (and (and (and (and (and (and (and (or (or (or x38 (or x7 x53)) x13) x40) (or (or (or x48 (or x71 x53)) x122) x84)) (and (and (or (or x111 (or (or x76 x137) x153)) x157) (or (or x129 (or (or x137 x159) x149)) x21)) (and (and (or x72 (or x90 (or (or x92 x143) x45))) (or (or (or (or x92 x2) x6) x74) x142)) (and (or (or x110 (or x133 (or x126 x83))) x148) (or (or x4 (or (or x146 x83) x120)) x5))))) (and (or (or (or x65 (or x49 x20)) x140) x58) (or (or x95 (or (or x152 x49) x138)) x156))) (and (and (or (or x63 (or x50 (or x60 x152))) x124) (or (or (or (or x20 x60) x23) x97) x68)) (and (and (and (or (or x47 (or (or x16 x76) x35)) x88) (or (or (or (or x16 x159) x15) x34) x113)) (and (and (or (or (or x139 (or x146 x66)) x54) x9) (or (or (or x44 (or x126 x66)) x77) x127)) (and (or x100 (or x118 (or x46 (or x106 x2)))) (or x28 (or (or x99 (or x106 x143)) x37))))) (and (or x36 (or x10 (or (or x7 x64) x101))) (or x82 (or (or (or x64 x71) x51) x25)))))) (and (and (or (or (or x79 (or x50 x65)) x128) x19) (or (or x73 (or (or x23 x138) x79)) x70)) (and (and (and (and (or (or x151 (or (or x45 x46) x86)) x105) (or (or (or x86 (or x6 x99)) x147) x41)) (and (or x3 (or (or (or x120 x44) x39) x1)) (or (or (or (or x139 x133) x39) x91) x116))) (and (or x42 (or (or (or x35 x149) x22) x121)) (or (or x69 (or (or x153 x15) x22)) x24))) (and (or (or (or (or x48 x101) x130) x8) x93) (or (or (or x130 (or x38 x51)) x102) x119))))) (and (and (or (or (or x128 (or x97 x95)) x80) x17) (or x30 (or x80 (or (or x140 x63) x73)))) (and (and (and (or x89 (or x85 (or x69 (or x47 x129)))) (or (or (or x121 (or x111 x34)) x85) x150)) (and (and (or x145 (or x75 (or (or x74 x37) x151))) (or (or x75 (or x147 (or x118 x90))) x32)) (and (or x12 (or x29 (or x1 (or x110 x54)))) (or x103 (or (or x91 (or x4 x77)) x29))))) (and (or (or (or x8 (or x25 x13)) x27) x52) (or x141 (or x27 (or x102 (or x122 x10)))))))) (and (and (or x14 (or (or (or x124 x58) x70) x17)) (or x14 (or x30 (or (or x156 x68) x19)))) (and (and (or (or (or (or x40 x82) x93) x141) x78) (or x78 (or x52 (or (or x84 x36) x119)))) (and (and (or x104 (or (or (or x113 x157) x42) x89)) (or (or (or (or x88 x21) x24) x150) x104)) (and (and (or x31 (or (or (or x5 x127) x116) x12)) (or x31 (or (or x3 (or x9 x148)) x103))) (and (or (or (or (or x100 x72) x41) x145) x144) (or (or x32 (or x105 (or x142 x28))) x144))))))))))
(assert (or (and (and (and (not (= x135 (x26 x154 x135))) (and (not (= (x26 x154 x117) x117)) (not (= x134 (x26 x154 x134))))) (not (= x56 (x26 x154 x56)))) (not (= (x26 x154 x154) x154))) (or (and (not (= (x26 x56 x154) x154)) (and (and (not (= (x26 x56 x135) x135)) (and (not (= x117 (x26 x56 x117))) (not (= x134 (x26 x56 x134))))) (not (= x56 (x26 x56 x56))))) (or (and (not (= (x26 x135 x154) x154)) (and (and (not (= (x26 x135 x135) x135)) (and (not (= x117 (x26 x135 x117))) (not (= x134 (x26 x135 x134))))) (not (= x56 (x26 x135 x56))))) (or (and (not (= (x26 x134 x154) x154)) (and (and (and (not (= (x26 x134 x134) x134)) (not (= x117 (x26 x134 x117)))) (not (= x135 (x26 x134 x135)))) (not (= x56 (x26 x134 x56))))) (and (not (= (x26 x117 x154) x154)) (and (not (= (x26 x117 x56) x56)) (and (and (not (= (x26 x117 x117) x117)) (not (= x134 (x26 x117 x134)))) (not (= (x26 x117 x135) x135))))))))))
(check-sat)
(exit)
